crystal structure from CrS2 with Hexaginal structure     #Header line
1.00000000000000
 8.670000   5.040000   0.00000
-8.670000   5.040000   0.00000
 0.000000   0.00000   30.00000
Cr S 
9  18
Direct 
   24    0.0000000000    0.0000000000    0.0000000000
   16   -0.9690000000    1.6790000000   -1.3380000000
   16    0.9690000000    1.6790000000    1.3380000000
   24   -2.8900000000    1.6800000000    0.0000000000
   16   -3.8590000000    3.3590000000   -1.3380000000
   16   -1.9210000000    3.3590000000    1.3380000000
   24   -5.7800000000    3.3600000000    0.0000000000
   16   -6.7490000000    5.0390000000   -1.3380000000
   16   -4.8110000000    5.0390000000    1.3380000000
   24    2.8900000000    1.6800000000    0.0000000000
   16    1.9210000000    3.3590000000   -1.3380000000
   16    3.8590000000    3.3590000000    1.3380000000
   24    0.0000000000    3.3600000000    0.0000000000
   16   -0.9690000000    5.0390000000   -1.3380000000
   16    0.9690000000    5.0390000000    1.3380000000
   24   -2.8900000000    5.0400000000    0.0000000000
   16   -3.8590000000    6.7190000000   -1.3380000000
   16   -1.9210000000    6.7190000000    1.3380000000
   24    5.7800000000    3.3600000000    0.0000000000
   16    4.8110000000    5.0390000000   -1.3380000000
   16    6.7490000000    5.0390000000    1.3380000000
   24    2.8900000000    5.0400000000    0.0000000000
   16    1.9210000000    6.7190000000   -1.3380000000
   16    3.8590000000    6.7190000000    1.3380000000
   24    0.0000000000    6.7200000000    0.0000000000
   16   -0.9690000000    8.3990000000   -1.3380000000
   16    0.9690000000    8.3990000000    1.3380000000
